plantas = {Nuclear,Hidroelectrica,Termica};
produccionesDiarias = [500,450,380];
costos = [100,100,100];
clientes = {cliente1,cliente2,cliente3};
dias = {dia1,dia2};
demanda = [|100,100|100,100|100,100|];
